CST03
Position Depot: Random
Horizon for Depot: Small
Position of customers: Cluster
Distribution of the demand: Medium
Width of time windows: Tight
Distribution of the service: Small

VEHICLE 
NUMBER 	 CAPACITY 
 16 	 	 104 
 
CUSTOMER
CUST NO. 	 XCOORD.  	 YCOORD. 	 DEMAND 	 READY TIME 	 DUE DATE 	 SERVICE TIME 
 0 	 	 110 	 	 404 	 	 0 	 	 0 	 	 1710 	 	 0 
  1 	 	 513 	 	 492 	 	 2 	 	 582 	 	 673 	 	 54 
  2 	 	 625 	 	 722 	 	 5 	 	 1216 	 	 1277 	 	 86 
  3 	 	 623 	 	 269 	 	 56 	 	 496 	 	 687 	 	 86 
  4 	 	 232 	 	 887 	 	 3 	 	 488 	 	 547 	 	 73 
  5 	 	 568 	 	 830 	 	 4 	 	 574 	 	 688 	 	 58 
  6 	 	 715 	 	 563 	 	 2 	 	 922 	 	 1093 	 	 85 
  7 	 	 715 	 	 637 	 	 2 	 	 637 	 	 750 	 	 69 
  8 	 	 178 	 	 831 	 	 91 	 	 309 	 	 475 	 	 68 
  9 	 	 522 	 	 795 	 	 95 	 	 1411 	 	 1514 	 	 54 
  10 	 	 212 	 	 872 	 	 2 	 	 709 	 	 789 	 	 77 
  11 	 	 261 	 	 852 	 	 60 	 	 322 	 	 520 	 	 89 
  12 	 	 199 	 	 873 	 	 86 	 	 909 	 	 1028 	 	 84 
  13 	 	 232 	 	 934 	 	 78 	 	 463 	 	 643 	 	 73 
  14 	 	 763 	 	 665 	 	 8 	 	 690 	 	 773 	 	 69 
  15 	 	 611 	 	 729 	 	 6 	 	 717 	 	 910 	 	 56 
  16 	 	 643 	 	 240 	 	 5 	 	 516 	 	 613 	 	 80 
  17 	 	 539 	 	 545 	 	 10 	 	 510 	 	 570 	 	 100 
  18 	 	 550 	 	 453 	 	 3 	 	 607 	 	 660 	 	 53 
  19 	 	 604 	 	 569 	 	 10 	 	 1189 	 	 1270 	 	 58 
  20 	 	 719 	 	 556 	 	 8 	 	 1161 	 	 1315 	 	 50 
  21 	 	 310 	 	 887 	 	 7 	 	 379 	 	 575 	 	 90 
  22 	 	 787 	 	 586 	 	 9 	 	 676 	 	 771 	 	 55 
  23 	 	 647 	 	 368 	 	 5 	 	 1172 	 	 1342 	 	 100 
  24 	 	 561 	 	 718 	 	 1 	 	 535 	 	 604 	 	 71 
  25 	 	 715 	 	 557 	 	 3 	 	 605 	 	 686 	 	 92 
  26 	 	 734 	 	 544 	 	 4 	 	 1240 	 	 1434 	 	 73 
  27 	 	 627 	 	 608 	 	 10 	 	 421 	 	 611 	 	 63 
  28 	 	 198 	 	 910 	 	 3 	 	 1150 	 	 1342 	 	 51 
  29 	 	 171 	 	 882 	 	 1 	 	 1366 	 	 1523 	 	 98 
  30 	 	 536 	 	 503 	 	 5 	 	 1468 	 	 1588 	 	 59 
  31 	 	 622 	 	 328 	 	 9 	 	 1431 	 	 1547 	 	 53 
  32 	 	 515 	 	 433 	 	 9 	 	 1071 	 	 1148 	 	 87 
  33 	 	 508 	 	 459 	 	 6 	 	 781 	 	 929 	 	 89 
  34 	 	 520 	 	 203 	 	 3 	 	 413 	 	 558 	 	 65 
  35 	 	 227 	 	 846 	 	 5 	 	 1464 	 	 1542 	 	 90 
  36 	 	 748 	 	 713 	 	 5 	 	 625 	 	 779 	 	 62 
  37 	 	 726 	 	 518 	 	 1 	 	 618 	 	 689 	 	 84 
  38 	 	 610 	 	 323 	 	 7 	 	 493 	 	 662 	 	 96 
  39 	 	 661 	 	 591 	 	 9 	 	 718 	 	 890 	 	 82 
  40 	 	 555 	 	 805 	 	 10 	 	 535 	 	 658 	 	 88 
  41 	 	 641 	 	 327 	 	 10 	 	 809 	 	 935 	 	 92 
  42 	 	 381 	 	 890 	 	 75 	 	 1184 	 	 1373 	 	 62 
  43 	 	 657 	 	 620 	 	 7 	 	 661 	 	 835 	 	 82 
  44 	 	 178 	 	 826 	 	 7 	 	 1523 	 	 1677 	 	 86 
  45 	 	 668 	 	 578 	 	 6 	 	 849 	 	 977 	 	 97 
  46 	 	 512 	 	 211 	 	 10 	 	 383 	 	 543 	 	 74 
  47 	 	 601 	 	 233 	 	 5 	 	 1142 	 	 1288 	 	 68 
  48 	 	 636 	 	 724 	 	 5 	 	 1509 	 	 1582 	 	 67 
  49 	 	 516 	 	 863 	 	 10 	 	 1486 	 	 1580 	 	 79 
  50 	 	 572 	 	 283 	 	 9 	 	 415 	 	 525 	 	 67 
 